
Gurobi 6.5.2 (linux64) logging started Wed Mar 15 12:59:28 2017


Gurobi 6.5.2 (linux64) logging started Wed Mar 15 12:59:28 2017

Optimize a model with 401 rows, 6170 columns and 16737 nonzeros
Coefficient statistics:
  Matrix range    [1e+00, 2e+00]
  Objective range [1e+00, 1e+02]
  Bounds range    [1e+00, 1e+00]
  RHS range       [1e+00, 1e+00]
Found heuristic solution: objective 2734
Presolve removed 87 rows and 1 columns
Presolve time: 0.03s
Presolved: 314 rows, 6169 columns, 14936 nonzeros
Variable types: 0 continuous, 6169 integer (6169 binary)

Root relaxation: objective 1.196500e+03, 210 iterations, 0.00 seconds

    Nodes    |    Current Node    |     Objective Bounds      |     Work
 Expl Unexpl |  Obj  Depth IntInf | Incumbent    BestBd   Gap | It/Node Time

     0     0 1196.50000    0   66 2734.00000 1196.50000  56.2%     -    0s
     0     0 1290.70000    0   30 2734.00000 1290.70000  52.8%     -    0s
     0     0 1307.98611    0   73 2734.00000 1307.98611  52.2%     -    0s
     0     0 1312.57860    0   81 2734.00000 1312.57860  52.0%     -    0s
     0     0 1314.57500    0   65 2734.00000 1314.57500  51.9%     -    0s
     0     0 1314.68049    0   69 2734.00000 1314.68049  51.9%     -    0s
     0     0 1314.83846    0   60 2734.00000 1314.83846  51.9%     -    0s
     0     0 1314.96667    0   75 2734.00000 1314.96667  51.9%     -    0s
     0     0 1315.20909    0   66 2734.00000 1315.20909  51.9%     -    0s
     0     0 1315.20909    0   66 2734.00000 1315.20909  51.9%     -    0s
     0     2 1315.20909    0   66 2734.00000 1315.20909  51.9%     -    1s
  2588  2396 1387.50000  164    4 2734.00000 1318.19444  51.8%   5.2    5s

Cutting planes:
  Gomory: 69
  Cover: 180
  MIR: 3
  Flow cover: 19
  Zero half: 6
  Lazy constraints: 53

Explored 2936 nodes (17428 simplex iterations) in 10.00 seconds
Thread count was 8 (of 8 available processors)

Time limit reached
Best objective 2.734000000000e+03, best bound 1.328000000000e+03, gap 51.4265%
